# Solution for model GNN
# Objective value = 1.6053017749015008e+00
A[0,0] 1
A[0,1] 1
A[0,2] 1
A[0,3] 1
A[1,0] 1
A[1,1] 1
A[1,2] 0
A[1,3] 0
A[2,0] 1
A[2,1] 0
A[2,2] 1
A[2,3] 0
A[3,0] 1
A[3,1] 0
A[3,2] 0
A[3,3] 1
x[0,0] 1
x[0,1] 0
x[0,2] 0
x[0,3] 0
x[0,4] 0
x[0,5] 0
x[0,6] 0
x[0,7] 1
x[0,8] 0
x[0,9] 0
x[0,10] 1
x[0,11] 0
x[0,12] 0
x[0,13] 0
x[1,0] 0
x[1,1] 1
x[1,2] 0
x[1,3] 0
x[1,4] 0
x[1,5] 1
x[1,6] 0
x[1,7] 0
x[1,8] 0
x[1,9] 0
x[1,10] 1
x[1,11] 0
x[1,12] 0
x[1,13] 0
x[2,0] 0
x[2,1] 1
x[2,2] 0
x[2,3] 0
x[2,4] 0
x[2,5] 1
x[2,6] 0
x[2,7] 0
x[2,8] 0
x[2,9] 0
x[2,10] 1
x[2,11] 0
x[2,12] 0
x[2,13] 0
x[3,0] 0
x[3,1] 1
x[3,2] 0
x[3,3] 0
x[3,4] 0
x[3,5] 1
x[3,6] 0
x[3,7] 0
x[3,8] 0
x[3,9] 0
x[3,10] 1
x[3,11] 0
x[3,12] 0
x[3,13] 0
c[0,0,0] 0
c[0,0,1] 0
c[0,0,2] 0
c[0,0,3] 0
c[0,0,4] 0
c[0,0,5] 0
c[0,0,6] 0
c[0,0,7] 0
c[0,0,8] 0
c[0,0,9] 0
c[0,0,10] 0
c[0,0,11] 0
c[0,0,12] 0
c[0,0,13] 0
c[0,0,14] 0
c[0,0,15] 0
c[0,0,16] 0
c[0,0,17] 0
c[0,0,18] 0
c[0,0,19] 0
c[0,0,20] 0
c[0,0,21] 0
c[0,0,22] 0
c[0,0,23] 0
c[0,0,24] 1
c[0,1,0] 0
c[0,1,1] 0
c[0,1,2] 0
c[0,1,3] 0
c[0,1,4] 0
c[0,1,5] 0
c[0,1,6] 0
c[0,1,7] 0
c[0,1,8] 0
c[0,1,9] 0
c[0,1,10] 0
c[0,1,11] 0
c[0,1,12] 0
c[0,1,13] 0
c[0,1,14] 0
c[0,1,15] 0
c[0,1,16] 0
c[0,1,17] 0
c[0,1,18] 0
c[0,1,19] 0
c[0,1,20] 0
c[0,1,21] 0
c[0,1,22] 1
c[0,1,23] 0
c[0,1,24] 0
c[0,2,0] 0
c[0,2,1] 0
c[0,2,2] 0
c[0,2,3] 0
c[0,2,4] 0
c[0,2,5] 0
c[0,2,6] 0
c[0,2,7] 0
c[0,2,8] 0
c[0,2,9] 0
c[0,2,10] 0
c[0,2,11] 0
c[0,2,12] 0
c[0,2,13] 0
c[0,2,14] 0
c[0,2,15] 0
c[0,2,16] 0
c[0,2,17] 0
c[0,2,18] 0
c[0,2,19] 0
c[0,2,20] 0
c[0,2,21] 0
c[0,2,22] 1
c[0,2,23] 0
c[0,2,24] 0
c[0,3,0] 0
c[0,3,1] 0
c[0,3,2] 0
c[0,3,3] 0
c[0,3,4] 0
c[0,3,5] 0
c[0,3,6] 0
c[0,3,7] 0
c[0,3,8] 0
c[0,3,9] 0
c[0,3,10] 0
c[0,3,11] 0
c[0,3,12] 0
c[0,3,13] 0
c[0,3,14] 0
c[0,3,15] 0
c[0,3,16] 0
c[0,3,17] 0
c[0,3,18] 0
c[0,3,19] 0
c[0,3,20] 0
c[0,3,21] 0
c[0,3,22] 1
c[0,3,23] 0
c[0,3,24] 0
c[1,0,0] 0
c[1,0,1] 0
c[1,0,2] 0
c[1,0,3] 0
c[1,0,4] 0
c[1,0,5] 0
c[1,0,6] 0
c[1,0,7] 0
c[1,0,8] 0
c[1,0,9] 0
c[1,0,10] 0
c[1,0,11] 0
c[1,0,12] 0
c[1,0,13] 0
c[1,0,14] 1
c[1,0,15] 0
c[1,0,16] 0
c[1,0,17] 0
c[1,0,18] 0
c[1,0,19] 0
c[1,0,20] 0
c[1,0,21] 0
c[1,0,22] 0
c[1,0,23] 0
c[1,0,24] 0
c[1,1,0] 0
c[1,1,1] 0
c[1,1,2] 0
c[1,1,3] 0
c[1,1,4] 0
c[1,1,5] 0
c[1,1,6] 0
c[1,1,7] 0
c[1,1,8] 0
c[1,1,9] 0
c[1,1,10] 0
c[1,1,11] 0
c[1,1,12] 1
c[1,1,13] 0
c[1,1,14] 0
c[1,1,15] 0
c[1,1,16] 0
c[1,1,17] 0
c[1,1,18] 0
c[1,1,19] 0
c[1,1,20] 0
c[1,1,21] 0
c[1,1,22] 0
c[1,1,23] 0
c[1,1,24] 0
c[1,2,0] 0
c[1,2,1] 0
c[1,2,2] 0
c[1,2,3] 0
c[1,2,4] 0
c[1,2,5] 0
c[1,2,6] 0
c[1,2,7] 0
c[1,2,8] 0
c[1,2,9] 0
c[1,2,10] 0
c[1,2,11] 0
c[1,2,12] 1
c[1,2,13] 0
c[1,2,14] 0
c[1,2,15] 0
c[1,2,16] 0
c[1,2,17] 0
c[1,2,18] 0
c[1,2,19] 0
c[1,2,20] 0
c[1,2,21] 0
c[1,2,22] 0
c[1,2,23] 0
c[1,2,24] 0
c[1,3,0] 0
c[1,3,1] 0
c[1,3,2] 0
c[1,3,3] 0
c[1,3,4] 0
c[1,3,5] 0
c[1,3,6] 0
c[1,3,7] 0
c[1,3,8] 0
c[1,3,9] 0
c[1,3,10] 0
c[1,3,11] 0
c[1,3,12] 1
c[1,3,13] 0
c[1,3,14] 0
c[1,3,15] 0
c[1,3,16] 0
c[1,3,17] 0
c[1,3,18] 0
c[1,3,19] 0
c[1,3,20] 0
c[1,3,21] 0
c[1,3,22] 0
c[1,3,23] 0
c[1,3,24] 0
c[2,0,0] 0
c[2,0,1] 0
c[2,0,2] 0
c[2,0,3] 0
c[2,0,4] 0
c[2,0,5] 0
c[2,0,6] 0
c[2,0,7] 0
c[2,0,8] 0
c[2,0,9] 0
c[2,0,10] 0
c[2,0,11] 0
c[2,0,12] 0
c[2,0,13] 0
c[2,0,14] 1
c[2,0,15] 0
c[2,0,16] 0
c[2,0,17] 0
c[2,0,18] 0
c[2,0,19] 0
c[2,0,20] 0
c[2,0,21] 0
c[2,0,22] 0
c[2,0,23] 0
c[2,0,24] 0
c[2,1,0] 0
c[2,1,1] 0
c[2,1,2] 0
c[2,1,3] 0
c[2,1,4] 0
c[2,1,5] 0
c[2,1,6] 0
c[2,1,7] 0
c[2,1,8] 0
c[2,1,9] 0
c[2,1,10] 0
c[2,1,11] 0
c[2,1,12] 1
c[2,1,13] 0
c[2,1,14] 0
c[2,1,15] 0
c[2,1,16] 0
c[2,1,17] 0
c[2,1,18] 0
c[2,1,19] 0
c[2,1,20] 0
c[2,1,21] 0
c[2,1,22] 0
c[2,1,23] 0
c[2,1,24] 0
c[2,2,0] 0
c[2,2,1] 0
c[2,2,2] 0
c[2,2,3] 0
c[2,2,4] 0
c[2,2,5] 0
c[2,2,6] 0
c[2,2,7] 0
c[2,2,8] 0
c[2,2,9] 0
c[2,2,10] 0
c[2,2,11] 0
c[2,2,12] 1
c[2,2,13] 0
c[2,2,14] 0
c[2,2,15] 0
c[2,2,16] 0
c[2,2,17] 0
c[2,2,18] 0
c[2,2,19] 0
c[2,2,20] 0
c[2,2,21] 0
c[2,2,22] 0
c[2,2,23] 0
c[2,2,24] 0
c[2,3,0] 0
c[2,3,1] 0
c[2,3,2] 0
c[2,3,3] 0
c[2,3,4] 0
c[2,3,5] 0
c[2,3,6] 0
c[2,3,7] 0
c[2,3,8] 0
c[2,3,9] 0
c[2,3,10] 0
c[2,3,11] 0
c[2,3,12] 1
c[2,3,13] 0
c[2,3,14] 0
c[2,3,15] 0
c[2,3,16] 0
c[2,3,17] 0
c[2,3,18] 0
c[2,3,19] 0
c[2,3,20] 0
c[2,3,21] 0
c[2,3,22] 0
c[2,3,23] 0
c[2,3,24] 0
c[3,0,0] 0
c[3,0,1] 0
c[3,0,2] 0
c[3,0,3] 0
c[3,0,4] 0
c[3,0,5] 0
c[3,0,6] 0
c[3,0,7] 0
c[3,0,8] 0
c[3,0,9] 0
c[3,0,10] 0
c[3,0,11] 0
c[3,0,12] 0
c[3,0,13] 0
c[3,0,14] 1
c[3,0,15] 0
c[3,0,16] 0
c[3,0,17] 0
c[3,0,18] 0
c[3,0,19] 0
c[3,0,20] 0
c[3,0,21] 0
c[3,0,22] 0
c[3,0,23] 0
c[3,0,24] 0
c[3,1,0] 0
c[3,1,1] 0
c[3,1,2] 0
c[3,1,3] 0
c[3,1,4] 0
c[3,1,5] 0
c[3,1,6] 0
c[3,1,7] 0
c[3,1,8] 0
c[3,1,9] 0
c[3,1,10] 0
c[3,1,11] 0
c[3,1,12] 1
c[3,1,13] 0
c[3,1,14] 0
c[3,1,15] 0
c[3,1,16] 0
c[3,1,17] 0
c[3,1,18] 0
c[3,1,19] 0
c[3,1,20] 0
c[3,1,21] 0
c[3,1,22] 0
c[3,1,23] 0
c[3,1,24] 0
c[3,2,0] 0
c[3,2,1] 0
c[3,2,2] 0
c[3,2,3] 0
c[3,2,4] 0
c[3,2,5] 0
c[3,2,6] 0
c[3,2,7] 0
c[3,2,8] 0
c[3,2,9] 0
c[3,2,10] 0
c[3,2,11] 0
c[3,2,12] 1
c[3,2,13] 0
c[3,2,14] 0
c[3,2,15] 0
c[3,2,16] 0
c[3,2,17] 0
c[3,2,18] 0
c[3,2,19] 0
c[3,2,20] 0
c[3,2,21] 0
c[3,2,22] 0
c[3,2,23] 0
c[3,2,24] 0
c[3,3,0] 0
c[3,3,1] 0
c[3,3,2] 0
c[3,3,3] 0
c[3,3,4] 0
c[3,3,5] 0
c[3,3,6] 0
c[3,3,7] 0
c[3,3,8] 0
c[3,3,9] 0
c[3,3,10] 0
c[3,3,11] 0
c[3,3,12] 1
c[3,3,13] 0
c[3,3,14] 0
c[3,3,15] 0
c[3,3,16] 0
c[3,3,17] 0
c[3,3,18] 0
c[3,3,19] 0
c[3,3,20] 0
c[3,3,21] 0
c[3,3,22] 0
c[3,3,23] 0
c[3,3,24] 0
b[0,0,0] 0
b[0,0,1] 0
b[0,0,2] 0
b[0,0,3] 0
b[0,0,4] 0
b[0,0,5] 0
b[0,0,6] 0
b[0,0,7] 0
b[0,0,8] 0
b[0,0,9] 0
b[0,0,10] 0
b[0,0,11] 0
b[0,0,12] 0
b[0,0,13] 0
b[0,1,0] 0
b[0,1,1] 0
b[0,1,2] 0
b[0,1,3] 0
b[0,1,4] 0
b[0,1,5] 0
b[0,1,6] 0
b[0,1,7] 0
b[0,1,8] 0
b[0,1,9] 0
b[0,1,10] 0
b[0,1,11] 0
b[0,1,12] 0
b[0,1,13] 0
b[0,2,0] 0
b[0,2,1] 0
b[0,2,2] 0
b[0,2,3] 0
b[0,2,4] 0
b[0,2,5] 0
b[0,2,6] 0
b[0,2,7] 0
b[0,2,8] 0
b[0,2,9] 0
b[0,2,10] 0
b[0,2,11] 0
b[0,2,12] 0
b[0,2,13] 0
b[0,3,0] 0
b[0,3,1] 0
b[0,3,2] 0
b[0,3,3] 0
b[0,3,4] 0
b[0,3,5] 0
b[0,3,6] 0
b[0,3,7] 0
b[0,3,8] 0
b[0,3,9] 0
b[0,3,10] 0
b[0,3,11] 0
b[0,3,12] 0
b[0,3,13] 0
b[1,0,0] 0
b[1,0,1] 0
b[1,0,2] 0
b[1,0,3] 0
b[1,0,4] 0
b[1,0,5] 0
b[1,0,6] 0
b[1,0,7] 0
b[1,0,8] 0
b[1,0,9] 0
b[1,0,10] 0
b[1,0,11] 0
b[1,0,12] 0
b[1,0,13] 0
b[1,1,0] 0
b[1,1,1] 0
b[1,1,2] 0
b[1,1,3] 0
b[1,1,4] 0
b[1,1,5] 0
b[1,1,6] 0
b[1,1,7] 0
b[1,1,8] 0
b[1,1,9] 0
b[1,1,10] 0
b[1,1,11] 0
b[1,1,12] 0
b[1,1,13] 0
b[1,2,0] 0
b[1,2,1] 0
b[1,2,2] 0
b[1,2,3] 0
b[1,2,4] 0
b[1,2,5] 0
b[1,2,6] 0
b[1,2,7] 0
b[1,2,8] 0
b[1,2,9] 0
b[1,2,10] 0
b[1,2,11] 0
b[1,2,12] 0
b[1,2,13] 0
b[1,3,0] 0
b[1,3,1] 0
b[1,3,2] 0
b[1,3,3] 0
b[1,3,4] 0
b[1,3,5] 0
b[1,3,6] 0
b[1,3,7] 0
b[1,3,8] 0
b[1,3,9] 0
b[1,3,10] 0
b[1,3,11] 0
b[1,3,12] 0
b[1,3,13] 0
b[2,0,0] 0
b[2,0,1] 0
b[2,0,2] 0
b[2,0,3] 0
b[2,0,4] 0
b[2,0,5] 0
b[2,0,6] 0
b[2,0,7] 0
b[2,0,8] 0
b[2,0,9] 0
b[2,0,10] 0
b[2,0,11] 0
b[2,0,12] 0
b[2,0,13] 0
b[2,1,0] 0
b[2,1,1] 0
b[2,1,2] 0
b[2,1,3] 0
b[2,1,4] 0
b[2,1,5] 0
b[2,1,6] 0
b[2,1,7] 0
b[2,1,8] 0
b[2,1,9] 0
b[2,1,10] 0
b[2,1,11] 0
b[2,1,12] 0
b[2,1,13] 0
b[2,2,0] 0
b[2,2,1] 0
b[2,2,2] 0
b[2,2,3] 0
b[2,2,4] 0
b[2,2,5] 0
b[2,2,6] 0
b[2,2,7] 0
b[2,2,8] 0
b[2,2,9] 0
b[2,2,10] 0
b[2,2,11] 0
b[2,2,12] 0
b[2,2,13] 0
b[2,3,0] 0
b[2,3,1] 0
b[2,3,2] 0
b[2,3,3] 0
b[2,3,4] 0
b[2,3,5] 0
b[2,3,6] 0
b[2,3,7] 0
b[2,3,8] 0
b[2,3,9] 0
b[2,3,10] 0
b[2,3,11] 0
b[2,3,12] 0
b[2,3,13] 0
b[3,0,0] 0
b[3,0,1] 0
b[3,0,2] 0
b[3,0,3] 0
b[3,0,4] 0
b[3,0,5] 0
b[3,0,6] 0
b[3,0,7] 0
b[3,0,8] 0
b[3,0,9] 0
b[3,0,10] 0
b[3,0,11] 0
b[3,0,12] 0
b[3,0,13] 0
b[3,1,0] 0
b[3,1,1] 0
b[3,1,2] 0
b[3,1,3] 0
b[3,1,4] 0
b[3,1,5] 0
b[3,1,6] 0
b[3,1,7] 0
b[3,1,8] 0
b[3,1,9] 0
b[3,1,10] 0
b[3,1,11] 0
b[3,1,12] 0
b[3,1,13] 0
b[3,2,0] 0
b[3,2,1] 0
b[3,2,2] 0
b[3,2,3] 0
b[3,2,4] 0
b[3,2,5] 0
b[3,2,6] 0
b[3,2,7] 0
b[3,2,8] 0
b[3,2,9] 0
b[3,2,10] 0
b[3,2,11] 0
b[3,2,12] 0
b[3,2,13] 0
b[3,3,0] 0
b[3,3,1] 0
b[3,3,2] 0
b[3,3,3] 0
b[3,3,4] 0
b[3,3,5] 0
b[3,3,6] 0
b[3,3,7] 0
b[3,3,8] 0
b[3,3,9] 0
b[3,3,10] 0
b[3,3,11] 0
b[3,3,12] 0
b[3,3,13] 0
sp[0,0] 0.25
sp[0,1] 3.5355339059327373e-01
sp[0,2] 3.5355339059327373e-01
sp[0,3] 3.5355339059327373e-01
sp[1,0] 3.5355339059327373e-01
sp[1,1] 4.9999999999999989e-01
sp[1,2] 4.9999999999999989e-01
sp[1,3] 4.9999999999999989e-01
sp[2,0] 3.5355339059327373e-01
sp[2,1] 4.9999999999999989e-01
sp[2,2] 4.9999999999999989e-01
sp[2,3] 4.9999999999999989e-01
sp[3,0] 3.5355339059327373e-01
sp[3,1] 4.9999999999999989e-01
sp[3,2] 4.9999999999999989e-01
sp[3,3] 4.9999999999999989e-01
d_plus[0] 4
d_plus[1] 2
d_plus[2] 2
d_plus[3] 2
p[0,0] 24
p[0,1] 22
p[0,2] 22
p[0,3] 22
p[1,0] 14
p[1,1] 12
p[1,2] 12
p[1,3] 12
p[2,0] 14
p[2,1] 12
p[2,2] 12
p[2,3] 12
p[3,0] 14
p[3,1] 12
p[3,2] 12
p[3,3] 12
t[0,0] 0.25
t[0,1] 3.5355339059327373e-01
t[0,2] 0.353553390593115
t[0,3] 3.5355339059327018e-01
t[1,0] 3.5355339059327373e-01
t[1,1] 4.9999999999999989e-01
t[1,2] 0
t[1,3] 0
t[2,0] 3.5355339059311452e-01
t[2,1] 0
t[2,2] 0.5
t[2,3] 0
t[3,0] 3.5355339059326962e-01
t[3,1] 0
t[3,2] 0
t[3,3] 0.5
h_prime[0,0] 3.4156080200788763e-01
h_prime[0,1] 3.8501120418296148e-02
h_prime[0,2] 0
h_prime[0,3] 9.9401984602981130e-01
h_prime[0,4] 6.5955643213787007e-01
h_prime[0,5] 0
h_prime[0,6] 0
h_prime[0,7] 0
h_prime[0,8] 1.0626526881943574e-01
h_prime[0,9] 0
h_prime[0,10] 0
h_prime[0,11] 0
h_prime[0,12] 0
h_prime[0,13] 2.7433355117688457e-01
h_prime[0,14] 0
h_prime[0,15] 6.0036368741852708e-01
h_prime[0,16] 0
h_prime[0,17] 0.356137948096398
h_prime[0,18] 6.6788210679556637e-01
h_prime[0,19] 0
h_prime[0,20] 4.7986924951812987e-01
h_prime[0,21] 4.9486448495174806e-01
h_prime[0,22] 4.5305099300722224e-01
h_prime[0,23] 3.6667747018640251e-01
h_prime[0,24] 6.8731988394919230e-01
h_prime[0,25] 0
h_prime[0,26] 0
h_prime[0,27] 0
h_prime[0,28] 1.7810615545174902e-01
h_prime[0,29] 3.6814791042318529e-01
h_prime[0,30] 6.2220019444978181e-01
h_prime[0,31] 5.9357290216348779e-01
h_prime[1,0] 2.3932078276296093e-01
h_prime[1,1] 2.9140669521705281e-02
h_prime[1,2] 0
h_prime[1,3] 0.696473451879105
h_prime[1,4] 4.5942035445027474e-01
h_prime[1,5] 0
h_prime[1,6] 0
h_prime[1,7] 0
h_prime[1,8] 0.074785630367267
h_prime[1,9] 0
h_prime[1,10] 0
h_prime[1,11] 0
h_prime[1,12] 0
h_prime[1,13] 1.8954252937419405e-01
h_prime[1,14] 0
h_prime[1,15] 4.2149282235507679e-01
h_prime[1,16] 0
h_prime[1,17] 2.5080599462662068e-01
h_prime[1,18] 4.6872925605508897e-01
h_prime[1,19] 0
h_prime[1,20] 3.3567379980474021e-01
h_prime[1,21] 3.4657132809448143e-01
h_prime[1,22] 3.1857607677338523e-01
h_prime[1,23] 0.254161474736769
h_prime[1,24] 4.8050207426232189e-01
h_prime[1,25] 0
h_prime[1,26] 0
h_prime[1,27] 0
h_prime[1,28] 1.2571776135820290e-01
h_prime[1,29] 2.5683850989203122e-01
h_prime[1,30] 4.3535281274894105e-01
h_prime[1,31] 4.1680531622930850e-01
h_prime[2,0] 2.3932078276286997e-01
h_prime[2,1] 2.9140669521689155e-02
h_prime[2,2] 0
h_prime[2,3] 6.9647345187883758e-01
h_prime[2,4] 4.5942035445010460e-01
h_prime[2,5] 0
h_prime[2,6] 0
h_prime[2,7] 0
h_prime[2,8] 7.4785630367233485e-02
h_prime[2,9] 0
h_prime[2,10] 0
h_prime[2,11] 0
h_prime[2,12] 0
h_prime[2,13] 1.8954252937412533e-01
h_prime[2,14] 0
h_prime[2,15] 4.2149282235491492e-01
h_prime[2,16] 0
h_prime[2,17] 2.5080599462652764e-01
h_prime[2,18] 4.6872925605490640e-01
h_prime[2,19] 0
h_prime[2,20] 3.3567379980461215e-01
h_prime[2,21] 3.4657132809434915e-01
h_prime[2,22] 3.1857607677326671e-01
h_prime[2,23] 0.254161474736679
h_prime[2,24] 4.8050207426214248e-01
h_prime[2,25] 0
h_prime[2,26] 0
h_prime[2,27] 0
h_prime[2,28] 1.2571776135815052e-01
h_prime[2,29] 2.5683850989193718e-01
h_prime[2,30] 4.3535281274877397e-01
h_prime[2,31] 4.1680531622915090e-01
h_prime[3,0] 2.3932078276295862e-01
h_prime[3,1] 2.9140669521704878e-02
h_prime[3,2] 0
h_prime[3,3] 6.9647345187909815e-01
h_prime[3,4] 4.5942035445027052e-01
h_prime[3,5] 0
h_prime[3,6] 0
h_prime[3,7] 0
h_prime[3,8] 7.4785630367266126e-02
h_prime[3,9] 0
h_prime[3,10] 0
h_prime[3,11] 0
h_prime[3,12] 0
h_prime[3,13] 1.8954252937419236e-01
h_prime[3,14] 0
h_prime[3,15] 4.2149282235507274e-01
h_prime[3,16] 0
h_prime[3,17] 2.5080599462661834e-01
h_prime[3,18] 4.6872925605508425e-01
h_prime[3,19] 0
h_prime[3,20] 0.335673799804737
h_prime[3,21] 3.4657132809447805e-01
h_prime[3,22] 3.1857607677338229e-01
h_prime[3,23] 2.5416147473676681e-01
h_prime[3,24] 4.8050207426231739e-01
h_prime[3,25] 0
h_prime[3,26] 0
h_prime[3,27] 0
h_prime[3,28] 1.2571776135820159e-01
h_prime[3,29] 2.5683850989202894e-01
h_prime[3,30] 4.3535281274893689e-01
h_prime[3,31] 4.1680531622930456e-01
x_0_0_0_GCN 9.3937771992685659e-01
s_0_0_0_GCN 0
z_0_0_0_GCN 1
x_0_0_1_GCN 9.6013758797755555e-01
s_0_0_1_GCN 0
z_0_0_1_GCN 1
x_0_0_2_GCN 0
s_0_0_2_GCN 1.2619549290338891e-01
z_0_0_2_GCN 0
x_0_0_3_GCN 0
s_0_0_3_GCN 1.6933070115824966e-01
z_0_0_3_GCN 0
x_0_0_4_GCN 0
s_0_0_4_GCN 1.4581505427415623e-01
z_0_0_4_GCN 0
x_0_0_5_GCN 1.1053629104873364e+00
s_0_0_5_GCN 0
z_0_0_5_GCN 1
x_0_0_6_GCN 0
s_0_0_6_GCN 5.0085397193457748e-01
z_0_0_6_GCN 0
x_0_0_7_GCN 0
s_0_0_7_GCN 9.6865580662510720e-01
z_0_0_7_GCN 0
x_0_0_8_GCN 0
s_0_0_8_GCN 1.0925110934968247e+00
z_0_0_8_GCN 0
x_0_0_9_GCN 2.3272850663712522e-01
s_0_0_9_GCN 0
z_0_0_9_GCN 1
x_0_0_10_GCN 0
s_0_0_10_GCN 1.1839380672928017e-01
z_0_0_10_GCN 0
x_0_0_11_GCN 1.5739433898961966e-01
s_0_0_11_GCN 0
z_0_0_11_GCN 1
x_0_0_12_GCN 0
s_0_0_12_GCN 2.2292949457458888e-01
z_0_0_12_GCN 0
x_0_0_13_GCN 2.3475832887587750e-01
s_0_0_13_GCN 0
z_0_0_13_GCN 1
x_0_0_14_GCN 0
s_0_0_14_GCN 4.6263693921007937e-01
z_0_0_14_GCN 0
x_0_0_15_GCN 0
s_0_0_15_GCN 4.3536789230914485e-01
z_0_0_15_GCN 0
x_0_1_0_GCN 5.2013894034760022e-01
s_0_1_0_GCN 0
z_0_1_0_GCN 1
x_0_1_1_GCN 5.8437029958419118e-01
s_0_1_1_GCN 0
z_0_1_1_GCN 1
x_0_1_2_GCN 0
s_0_1_2_GCN 5.4215438217983226e-02
z_0_1_2_GCN 0
x_0_1_3_GCN 7.9227611057398565e-03
s_0_1_3_GCN 0
z_0_1_3_GCN 1
x_0_1_4_GCN 0
s_0_1_4_GCN 2.5294626165857537e-01
z_0_1_4_GCN 0
x_0_1_5_GCN 6.7757590851064520e-01
s_0_1_5_GCN 0
z_0_1_5_GCN 1
x_0_1_6_GCN 0
s_0_1_6_GCN 2.7264293058794581e-01
z_0_1_6_GCN 0
x_0_1_7_GCN 0
s_0_1_7_GCN 3.5937701585960946e-01
z_0_1_7_GCN 0
x_0_1_8_GCN 0
s_0_1_8_GCN 7.1911902035565134e-01
z_0_1_8_GCN 0
x_0_1_9_GCN 1.6807506187614224e-01
s_0_1_9_GCN 0
z_0_1_9_GCN 1
x_0_1_10_GCN 0
s_0_1_10_GCN 0.0697540651219131
z_0_1_10_GCN 0
x_0_1_11_GCN 9.5615378676370280e-02
s_0_1_11_GCN 0
z_0_1_11_GCN 1
x_0_1_12_GCN 0
s_0_1_12_GCN 1.8449223529658948e-01
z_0_1_12_GCN 0
x_0_1_13_GCN 9.4228160646555370e-02
s_0_1_13_GCN 0
z_0_1_13_GCN 1
x_0_1_14_GCN 0
s_0_1_14_GCN 3.0581850171483466e-01
z_0_1_14_GCN 0
x_0_1_15_GCN 0
s_0_1_15_GCN 2.3736984032042030e-01
z_0_1_15_GCN 0
x_0_2_0_GCN 0.520138940347548
s_0_2_0_GCN 0
z_0_2_0_GCN 1
x_0_2_1_GCN 5.8437029958410225e-01
s_0_2_1_GCN 0
z_0_2_1_GCN 1
x_0_2_2_GCN 0
s_0_2_2_GCN 5.4215438217986835e-02
z_0_2_2_GCN 0
x_0_2_3_GCN 7.9227611056805567e-03
s_0_2_3_GCN 0
z_0_2_3_GCN 1
x_0_2_4_GCN 0
s_0_2_4_GCN 2.5294626165845097e-01
z_0_2_4_GCN 0
x_0_2_5_GCN 6.7757590851053962e-01
s_0_2_5_GCN 0
z_0_2_5_GCN 1
x_0_2_6_GCN 0
s_0_2_6_GCN 2.7264293058792116e-01
z_0_2_6_GCN 0
x_0_2_7_GCN 0
s_0_2_7_GCN 3.5937701585967530e-01
z_0_2_7_GCN 0
x_0_2_8_GCN 0
s_0_2_8_GCN 7.1911902035551356e-01
z_0_2_8_GCN 0
x_0_2_9_GCN 1.6807506187610280e-01
s_0_2_9_GCN 0
z_0_2_9_GCN 1
x_0_2_10_GCN 0
s_0_2_10_GCN 6.9754065121903672e-02
z_0_2_10_GCN 0
x_0_2_11_GCN 9.5615378676355792e-02
s_0_2_11_GCN 0
z_0_2_11_GCN 1
x_0_2_12_GCN 0
s_0_2_12_GCN 1.8449223529653594e-01
z_0_2_12_GCN 0
x_0_2_13_GCN 9.4228160646566542e-02
s_0_2_13_GCN 0
z_0_2_13_GCN 1
x_0_2_14_GCN 0
s_0_2_14_GCN 3.0581850171477548e-01
z_0_2_14_GCN 0
x_0_2_15_GCN 0
s_0_2_15_GCN 2.3736984032039865e-01
z_0_2_15_GCN 0
x_0_3_0_GCN 0.520138940347599
s_0_3_0_GCN 0
z_0_3_0_GCN 1
x_0_3_1_GCN 5.8437029958418885e-01
s_0_3_1_GCN 0
z_0_3_1_GCN 1
x_0_3_2_GCN 0
s_0_3_2_GCN 5.4215438217983337e-02
z_0_3_2_GCN 0
x_0_3_3_GCN 7.9227611057382883e-03
s_0_3_3_GCN 0
z_0_3_3_GCN 1
x_0_3_4_GCN 0
s_0_3_4_GCN 2.5294626165857215e-01
z_0_3_4_GCN 0
x_0_3_5_GCN 6.7757590851064253e-01
s_0_3_5_GCN 0
z_0_3_5_GCN 1
x_0_3_6_GCN 0
s_0_3_6_GCN 2.7264293058794525e-01
z_0_3_6_GCN 0
x_0_3_7_GCN 0
s_0_3_7_GCN 3.5937701585961129e-01
z_0_3_7_GCN 0
x_0_3_8_GCN 0
s_0_3_8_GCN 7.1911902035564779e-01
z_0_3_8_GCN 0
x_0_3_9_GCN 1.6807506187614121e-01
s_0_3_9_GCN 0
z_0_3_9_GCN 1
x_0_3_10_GCN 0
s_0_3_10_GCN 6.9754065121912831e-02
z_0_3_10_GCN 0
x_0_3_11_GCN 9.5615378676369892e-02
s_0_3_11_GCN 0
z_0_3_11_GCN 1
x_0_3_12_GCN 0
s_0_3_12_GCN 1.8449223529658818e-01
z_0_3_12_GCN 0
x_0_3_13_GCN 9.4228160646555745e-02
s_0_3_13_GCN 0
z_0_3_13_GCN 1
x_0_3_14_GCN 0
s_0_3_14_GCN 3.0581850171483321e-01
z_0_3_14_GCN 0
x_0_3_15_GCN 0
s_0_3_15_GCN 2.3736984032041983e-01
z_0_3_15_GCN 0
x_1_0_0_GCN 3.2579215978001075e-01
s_1_0_0_GCN 0
z_1_0_0_GCN 1
x_1_0_1_GCN 8.2350927715149971e-02
s_1_0_1_GCN 0
z_1_0_1_GCN 1
x_1_0_2_GCN 1.9826584516253614e-02
s_1_0_2_GCN 0
z_1_0_2_GCN 1
x_1_0_3_GCN 5.2846265918534219e-01
s_1_0_3_GCN 0
z_1_0_3_GCN 1
x_1_0_4_GCN 8.7935907518572137e-02
s_1_0_4_GCN 0
z_1_0_4_GCN 1
x_1_0_5_GCN 0.997803325639359
s_1_0_5_GCN 0
z_1_0_5_GCN 1
x_1_0_6_GCN 0
s_1_0_6_GCN 3.3298933855358481e-01
z_1_0_6_GCN 0
x_1_0_7_GCN 4.1026154543251969e-01
s_1_0_7_GCN 0
z_1_0_7_GCN 1
x_1_0_8_GCN 6.7496503332962587e-02
s_1_0_8_GCN 0
z_1_0_8_GCN 1
x_1_0_9_GCN 0
s_1_0_9_GCN 6.4652991255057341e-03
z_1_0_9_GCN 0
x_1_0_10_GCN 5.1716403897254160e-01
s_1_0_10_GCN 0
z_1_0_10_GCN 1
x_1_0_11_GCN 0
s_1_0_11_GCN 5.0931853718807443e-02
z_1_0_11_GCN 0
x_1_0_12_GCN 6.8592726777441437e-01
s_1_0_12_GCN 0
z_1_0_12_GCN 1
x_1_0_13_GCN 1.1484717148745502e-01
s_1_0_13_GCN 0
z_1_0_13_GCN 1
x_1_0_14_GCN 1.3769860015429278e-01
s_1_0_14_GCN 0
z_1_0_14_GCN 1
x_1_0_15_GCN 4.9097137114596423e-01
s_1_0_15_GCN 0
z_1_0_15_GCN 1
x_1_1_0_GCN 2.3134401825789877e-01
s_1_1_0_GCN 0
z_1_1_0_GCN 1
x_1_1_1_GCN 6.3629701841414157e-02
s_1_1_1_GCN 0
z_1_1_1_GCN 1
x_1_1_2_GCN 4.2604979371729575e-03
s_1_1_2_GCN 0
z_1_1_2_GCN 1
x_1_1_3_GCN 3.9520908696153151e-01
s_1_1_3_GCN 0
z_1_1_3_GCN 1
x_1_1_4_GCN 5.8616527175330946e-02
s_1_1_4_GCN 0
z_1_1_4_GCN 1
x_1_1_5_GCN 7.4043618585084792e-01
s_1_1_5_GCN 0
z_1_1_5_GCN 1
x_1_1_6_GCN 0
s_1_1_6_GCN 2.4785436972135008e-01
z_1_1_6_GCN 0
x_1_1_7_GCN 3.1168615805148692e-01
s_1_1_7_GCN 0
z_1_1_7_GCN 1
x_1_1_8_GCN 5.5852217791666596e-02
s_1_1_8_GCN 0
z_1_1_8_GCN 1
x_1_1_9_GCN 0
s_1_1_9_GCN 0.00842420913075633
z_1_1_9_GCN 0
x_1_1_10_GCN 3.7009265198310248e-01
s_1_1_10_GCN 0
z_1_1_10_GCN 1
x_1_1_11_GCN 0
s_1_1_11_GCN 4.2494640180219867e-02
z_1_1_11_GCN 0
x_1_1_12_GCN 5.0126294146902317e-01
s_1_1_12_GCN 0
z_1_1_12_GCN 1
x_1_1_13_GCN 8.4913637384155333e-02
s_1_1_13_GCN 0
z_1_1_13_GCN 1
x_1_1_14_GCN 9.5420044252800471e-02
s_1_1_14_GCN 0
z_1_1_14_GCN 1
x_1_1_15_GCN 3.6208539111881277e-01
s_1_1_15_GCN 0
z_1_1_15_GCN 1
x_1_2_0_GCN 2.3134401825782774e-01
s_1_2_0_GCN 0
z_1_2_0_GCN 1
x_1_2_1_GCN 6.3629701841382891e-02
s_1_2_1_GCN 0
z_1_2_1_GCN 1
x_1_2_2_GCN 4.2604979371578689e-03
s_1_2_2_GCN 0
z_1_2_2_GCN 1
x_1_2_3_GCN 3.9520908696142287e-01
s_1_2_3_GCN 0
z_1_2_3_GCN 1
x_1_2_4_GCN 5.8616527175308249e-02
s_1_2_4_GCN 0
z_1_2_4_GCN 1
x_1_2_5_GCN 7.4043618585061455e-01
s_1_2_5_GCN 0
z_1_2_5_GCN 1
x_1_2_6_GCN 0
s_1_2_6_GCN 2.4785436972126609e-01
z_1_2_6_GCN 0
x_1_2_7_GCN 3.1168615805139671e-01
s_1_2_7_GCN 0
z_1_2_7_GCN 1
x_1_2_8_GCN 5.5852217791667345e-02
s_1_2_8_GCN 0
z_1_2_8_GCN 1
x_1_2_9_GCN 0
s_1_2_9_GCN 8.4242091307582690e-03
z_1_2_9_GCN 0
x_1_2_10_GCN 3.7009265198298608e-01
s_1_2_10_GCN 0
z_1_2_10_GCN 1
x_1_2_11_GCN 0
s_1_2_11_GCN 4.2494640180224384e-02
z_1_2_11_GCN 0
x_1_2_12_GCN 5.0126294146886075e-01
s_1_2_12_GCN 0
z_1_2_12_GCN 1
x_1_2_13_GCN 8.4913637384134572e-02
s_1_2_13_GCN 0
z_1_2_13_GCN 1
x_1_2_14_GCN 9.5420044252778155e-02
s_1_2_14_GCN 0
z_1_2_14_GCN 1
x_1_2_15_GCN 3.6208539111869320e-01
s_1_2_15_GCN 0
z_1_2_15_GCN 1
x_1_3_0_GCN 2.3134401825789694e-01
s_1_3_0_GCN 0
z_1_3_0_GCN 1
x_1_3_1_GCN 6.3629701841413353e-02
s_1_3_1_GCN 0
z_1_3_1_GCN 1
x_1_3_2_GCN 4.2604979371725690e-03
s_1_3_2_GCN 0
z_1_3_2_GCN 1
x_1_3_3_GCN 3.9520908696152890e-01
s_1_3_3_GCN 0
z_1_3_3_GCN 1
x_1_3_4_GCN 5.8616527175330328e-02
s_1_3_4_GCN 0
z_1_3_4_GCN 1
x_1_3_5_GCN 0.740436185850842
s_1_3_5_GCN 0
z_1_3_5_GCN 1
x_1_3_6_GCN 0
s_1_3_6_GCN 2.4785436972134794e-01
z_1_3_6_GCN 0
x_1_3_7_GCN 3.1168615805148470e-01
s_1_3_7_GCN 0
z_1_3_7_GCN 1
x_1_3_8_GCN 5.5852217791666679e-02
s_1_3_8_GCN 0
z_1_3_8_GCN 1
x_1_3_9_GCN 0
s_1_3_9_GCN 0.00842420913075638
z_1_3_9_GCN 0
x_1_3_10_GCN 3.7009265198309954e-01
s_1_3_10_GCN 0
z_1_3_10_GCN 1
x_1_3_11_GCN 0
s_1_3_11_GCN 4.2494640180220027e-02
z_1_3_11_GCN 0
x_1_3_12_GCN 5.0126294146901917e-01
s_1_3_12_GCN 0
z_1_3_12_GCN 1
x_1_3_13_GCN 8.4913637384154847e-02
s_1_3_13_GCN 0
z_1_3_13_GCN 1
x_1_3_14_GCN 9.5420044252799929e-02
s_1_3_14_GCN 0
z_1_3_14_GCN 1
x_1_3_15_GCN 3.6208539111880983e-01
s_1_3_15_GCN 0
z_1_3_15_GCN 1
x_2_0_0_GCN 0
s_2_0_0_GCN 0
z_2_0_0_GCN 1
x_2_0_1_GCN 0
s_2_0_1_GCN 0
z_2_0_1_GCN 1
x_2_0_2_GCN 0
s_2_0_2_GCN 5.8703147022666635e-01
z_2_0_2_GCN 0
x_2_0_3_GCN 0
s_2_0_3_GCN 0
z_2_0_3_GCN 1
x_2_0_4_GCN 0
s_2_0_4_GCN 0
z_2_0_4_GCN 1
x_2_0_5_GCN 0
s_2_0_5_GCN 1.0410274915501193e-01
z_2_0_5_GCN 0
x_2_0_6_GCN 0
s_2_0_6_GCN 2.1883789721969624e-02
z_2_0_6_GCN 0
x_2_0_7_GCN 0
s_2_0_7_GCN 1.0667435202646949e-01
z_2_0_7_GCN 0
x_2_0_8_GCN 0
s_2_0_8_GCN 0
z_2_0_8_GCN 1
x_2_0_9_GCN 0
s_2_0_9_GCN 2.1737686916285578e-01
z_2_0_9_GCN 0
x_2_0_10_GCN 0
s_2_0_10_GCN 5.8758992536816756e-01
z_2_0_10_GCN 0
x_2_0_11_GCN 0
s_2_0_11_GCN 1.9946450441424074e-01
z_2_0_11_GCN 0
x_2_0_12_GCN 0
s_2_0_12_GCN 3.2680359217799637e-01
z_2_0_12_GCN 0
x_2_0_13_GCN 0
s_2_0_13_GCN 0
z_2_0_13_GCN 1
x_2_0_14_GCN 0
s_2_0_14_GCN 1.6736224503806468e-01
z_2_0_14_GCN 0
x_2_0_15_GCN 0
s_2_0_15_GCN 0
z_2_0_15_GCN 1
x_2_0_16_GCN 0
s_2_0_16_GCN 4.6663549564644066e-02
z_2_0_16_GCN 0
x_2_0_17_GCN 0
s_2_0_17_GCN 0
z_2_0_17_GCN 1
x_2_0_18_GCN 0
s_2_0_18_GCN 0
z_2_0_18_GCN 1
x_2_0_19_GCN 0
s_2_0_19_GCN 5.0514118901588956e-01
z_2_0_19_GCN 0
x_2_0_20_GCN 0
s_2_0_20_GCN 0
z_2_0_20_GCN 1
x_2_0_21_GCN 0
s_2_0_21_GCN 0
z_2_0_21_GCN 1
x_2_0_22_GCN 0
s_2_0_22_GCN 0
z_2_0_22_GCN 1
x_2_0_23_GCN 0
s_2_0_23_GCN 0
z_2_0_23_GCN 1
x_2_0_24_GCN 0
s_2_0_24_GCN 0
z_2_0_24_GCN 1
x_2_0_25_GCN 0
s_2_0_25_GCN 2.8572114180761626e-01
z_2_0_25_GCN 0
x_2_0_26_GCN 0
s_2_0_26_GCN 3.3777375753500788e-02
z_2_0_26_GCN 0
x_2_0_27_GCN 0
s_2_0_27_GCN 1.6369660287533078e-01
z_2_0_27_GCN 0
x_2_0_28_GCN 0
s_2_0_28_GCN 0
z_2_0_28_GCN 1
x_2_0_29_GCN 0
s_2_0_29_GCN 0
z_2_0_29_GCN 1
x_2_0_30_GCN 0
s_2_0_30_GCN 0
z_2_0_30_GCN 1
x_2_0_31_GCN 0
s_2_0_31_GCN 0
z_2_0_31_GCN 1
x_2_1_0_GCN 0
s_2_1_0_GCN 0
z_2_1_0_GCN 1
x_2_1_1_GCN 0
s_2_1_1_GCN 0
z_2_1_1_GCN 1
x_2_1_2_GCN 0
s_2_1_2_GCN 4.1113404408201365e-01
z_2_1_2_GCN 0
x_2_1_3_GCN 0
s_2_1_3_GCN 0
z_2_1_3_GCN 1
x_2_1_4_GCN 0
s_2_1_4_GCN 0
z_2_1_4_GCN 1
x_2_1_5_GCN 0
s_2_1_5_GCN 7.3644870611855789e-02
z_2_1_5_GCN 0
x_2_1_6_GCN 0
s_2_1_6_GCN 1.4831436571386839e-02
z_2_1_6_GCN 0
x_2_1_7_GCN 0
s_2_1_7_GCN 7.5806404981733536e-02
z_2_1_7_GCN 0
x_2_1_8_GCN 0
s_2_1_8_GCN 0
z_2_1_8_GCN 1
x_2_1_9_GCN 0
s_2_1_9_GCN 1.5327357515976989e-01
z_2_1_9_GCN 0
x_2_1_10_GCN 0
s_2_1_10_GCN 4.1212511987515821e-01
z_2_1_10_GCN 0
x_2_1_11_GCN 0
s_2_1_11_GCN 1.3809959229357338e-01
z_2_1_11_GCN 0
x_2_1_12_GCN 0
s_2_1_12_GCN 2.2936901508935933e-01
z_2_1_12_GCN 0
x_2_1_13_GCN 0
s_2_1_13_GCN 0
z_2_1_13_GCN 1
x_2_1_14_GCN 0
s_2_1_14_GCN 1.1798847421569127e-01
z_2_1_14_GCN 0
x_2_1_15_GCN 0
s_2_1_15_GCN 0
z_2_1_15_GCN 1
x_2_1_16_GCN 0
s_2_1_16_GCN 3.1239474324067741e-02
z_2_1_16_GCN 0
x_2_1_17_GCN 0
s_2_1_17_GCN 0
z_2_1_17_GCN 1
x_2_1_18_GCN 0
s_2_1_18_GCN 0
z_2_1_18_GCN 1
x_2_1_19_GCN 0
s_2_1_19_GCN 3.5389394931491647e-01
z_2_1_19_GCN 0
x_2_1_20_GCN 0
s_2_1_20_GCN 0
z_2_1_20_GCN 1
x_2_1_21_GCN 0
s_2_1_21_GCN 0
z_2_1_21_GCN 1
x_2_1_22_GCN 0
s_2_1_22_GCN 0
z_2_1_22_GCN 1
x_2_1_23_GCN 0
s_2_1_23_GCN 0
z_2_1_23_GCN 1
x_2_1_24_GCN 0
s_2_1_24_GCN 0
z_2_1_24_GCN 1
x_2_1_25_GCN 0
s_2_1_25_GCN 1.9924480971363670e-01
z_2_1_25_GCN 0
x_2_1_26_GCN 0
s_2_1_26_GCN 2.3767977139861406e-02
z_2_1_26_GCN 0
x_2_1_27_GCN 0
s_2_1_27_GCN 1.1245005858194908e-01
z_2_1_27_GCN 0
x_2_1_28_GCN 0
s_2_1_28_GCN 0
z_2_1_28_GCN 1
x_2_1_29_GCN 0
s_2_1_29_GCN 0
z_2_1_29_GCN 1
x_2_1_30_GCN 0
s_2_1_30_GCN 0
z_2_1_30_GCN 1
x_2_1_31_GCN 0
s_2_1_31_GCN 0
z_2_1_31_GCN 1
x_2_2_0_GCN 0
s_2_2_0_GCN 0
z_2_2_0_GCN 1
x_2_2_1_GCN 0
s_2_2_1_GCN 0
z_2_2_1_GCN 1
x_2_2_2_GCN 0
s_2_2_2_GCN 4.1113404408185650e-01
z_2_2_2_GCN 0
x_2_2_3_GCN 0
s_2_2_3_GCN 0
z_2_2_3_GCN 1
x_2_2_4_GCN 0
s_2_2_4_GCN 0
z_2_2_4_GCN 1
x_2_2_5_GCN 0
s_2_2_5_GCN 7.3644870611826216e-02
z_2_2_5_GCN 0
x_2_2_6_GCN 0
s_2_2_6_GCN 1.4831436571381678e-02
z_2_2_6_GCN 0
x_2_2_7_GCN 0
s_2_2_7_GCN 7.5806404981703393e-02
z_2_2_7_GCN 0
x_2_2_8_GCN 0
s_2_2_8_GCN 0
z_2_2_8_GCN 1
x_2_2_9_GCN 0
s_2_2_9_GCN 1.5327357515971329e-01
z_2_2_9_GCN 0
x_2_2_10_GCN 0
s_2_2_10_GCN 4.1212511987499939e-01
z_2_2_10_GCN 0
x_2_2_11_GCN 0
s_2_2_11_GCN 1.3809959229352306e-01
z_2_2_11_GCN 0
x_2_2_12_GCN 0
s_2_2_12_GCN 2.2936901508927343e-01
z_2_2_12_GCN 0
x_2_2_13_GCN 0
s_2_2_13_GCN 0
z_2_2_13_GCN 1
x_2_2_14_GCN 0
s_2_2_14_GCN 1.1798847421564650e-01
z_2_2_14_GCN 0
x_2_2_15_GCN 0
s_2_2_15_GCN 0
z_2_2_15_GCN 1
x_2_2_16_GCN 0
s_2_2_16_GCN 3.1239474324061441e-02
z_2_2_16_GCN 0
x_2_2_17_GCN 0
s_2_2_17_GCN 0
z_2_2_17_GCN 1
x_2_2_18_GCN 0
s_2_2_18_GCN 0
z_2_2_18_GCN 1
x_2_2_19_GCN 0
s_2_2_19_GCN 3.5389394931478452e-01
z_2_2_19_GCN 0
x_2_2_20_GCN 0
s_2_2_20_GCN 0
z_2_2_20_GCN 1
x_2_2_21_GCN 0
s_2_2_21_GCN 0
z_2_2_21_GCN 1
x_2_2_22_GCN 0
s_2_2_22_GCN 0
z_2_2_22_GCN 1
x_2_2_23_GCN 0
s_2_2_23_GCN 0
z_2_2_23_GCN 1
x_2_2_24_GCN 0
s_2_2_24_GCN 0
z_2_2_24_GCN 1
x_2_2_25_GCN 0
s_2_2_25_GCN 1.9924480971356157e-01
z_2_2_25_GCN 0
x_2_2_26_GCN 0
s_2_2_26_GCN 2.3767977139845377e-02
z_2_2_26_GCN 0
x_2_2_27_GCN 0
s_2_2_27_GCN 1.1245005858191104e-01
z_2_2_27_GCN 0
x_2_2_28_GCN 0
s_2_2_28_GCN 0
z_2_2_28_GCN 1
x_2_2_29_GCN 0
s_2_2_29_GCN 0
z_2_2_29_GCN 1
x_2_2_30_GCN 0
s_2_2_30_GCN 0
z_2_2_30_GCN 1
x_2_2_31_GCN 0
s_2_2_31_GCN 0
z_2_2_31_GCN 1
x_2_3_0_GCN 0
s_2_3_0_GCN 0
z_2_3_0_GCN 1
x_2_3_1_GCN 0
s_2_3_1_GCN 0
z_2_3_1_GCN 1
x_2_3_2_GCN 0
s_2_3_2_GCN 4.1113404408200960e-01
z_2_3_2_GCN 0
x_2_3_3_GCN 0
s_2_3_3_GCN 0
z_2_3_3_GCN 1
x_2_3_4_GCN 0
s_2_3_4_GCN 0
z_2_3_4_GCN 1
x_2_3_5_GCN 0
s_2_3_5_GCN 7.3644870611855068e-02
z_2_3_5_GCN 0
x_2_3_6_GCN 0
s_2_3_6_GCN 1.4831436571386683e-02
z_2_3_6_GCN 0
x_2_3_7_GCN 0
s_2_3_7_GCN 0.0758064049817328
z_2_3_7_GCN 0
x_2_3_8_GCN 0
s_2_3_8_GCN 0
z_2_3_8_GCN 1
x_2_3_9_GCN 0
s_2_3_9_GCN 1.5327357515976858e-01
z_2_3_9_GCN 0
x_2_3_10_GCN 0
s_2_3_10_GCN 4.1212511987515416e-01
z_2_3_10_GCN 0
x_2_3_11_GCN 0
s_2_3_11_GCN 1.3809959229357216e-01
z_2_3_11_GCN 0
x_2_3_12_GCN 0
s_2_3_12_GCN 2.2936901508935717e-01
z_2_3_12_GCN 0
x_2_3_13_GCN 0
s_2_3_13_GCN 0
z_2_3_13_GCN 1
x_2_3_14_GCN 0
s_2_3_14_GCN 1.1798847421569014e-01
z_2_3_14_GCN 0
x_2_3_15_GCN 0
s_2_3_15_GCN 0
z_2_3_15_GCN 1
x_2_3_16_GCN 0
s_2_3_16_GCN 3.1239474324067640e-02
z_2_3_16_GCN 0
x_2_3_17_GCN 0
s_2_3_17_GCN 0
z_2_3_17_GCN 1
x_2_3_18_GCN 0
s_2_3_18_GCN 0
z_2_3_18_GCN 1
x_2_3_19_GCN 0
s_2_3_19_GCN 3.5389394931491308e-01
z_2_3_19_GCN 0
x_2_3_20_GCN 0
s_2_3_20_GCN 0
z_2_3_20_GCN 1
x_2_3_21_GCN 0
s_2_3_21_GCN 0
z_2_3_21_GCN 1
x_2_3_22_GCN 0
s_2_3_22_GCN 0
z_2_3_22_GCN 1
x_2_3_23_GCN 0
s_2_3_23_GCN 0
z_2_3_23_GCN 1
x_2_3_24_GCN 0
s_2_3_24_GCN 0
z_2_3_24_GCN 1
x_2_3_25_GCN 0
s_2_3_25_GCN 1.9924480971363487e-01
z_2_3_25_GCN 0
x_2_3_26_GCN 0
s_2_3_26_GCN 2.3767977139861014e-02
z_2_3_26_GCN 0
x_2_3_27_GCN 0
s_2_3_27_GCN 1.1245005858194818e-01
z_2_3_27_GCN 0
x_2_3_28_GCN 0
s_2_3_28_GCN 0
z_2_3_28_GCN 1
x_2_3_29_GCN 0
s_2_3_29_GCN 0
z_2_3_29_GCN 1
x_2_3_30_GCN 0
s_2_3_30_GCN 0
z_2_3_30_GCN 1
x_2_3_31_GCN 0
s_2_3_31_GCN 0
z_2_3_31_GCN 1
h[0] 1.0595231502996114e+00
h[1] 1.2592312898537728e-01
h[2] 0
h[3] 3.08344020166453
h[4] 2.0378174954857258e+00
h[5] 0
h[6] 0
h[7] 0
h[8] 3.3062215992191568e-01
h[9] 0
h[10] 0
h[11] 0
h[12] 0
h[13] 8.4296113930349748e-01
h[14] 0
h[15] 1.8648421544821332e+00
h[16] 0
h[17] 1.1085559319748057e+00
h[18] 2.0740698749528264e+00
h[19] 0
h[20] 1.4868906489292897e+00
h[21] 1.5345784692407278e+00
h[22] 1.4087792233312371e+00
h[23] 1.1291618943982797e+00
h[24] 2.1288261067295338e+00
h[25] 0
h[26] 0
h[27] 0
h[28] 5.5525943952406465e-01
h[29] 1.1386634400978295e+00
h[30] 1.9282586326934705e+00
h[31] 1.8439888508488167e+00
y 1.6053017749015008e+00
x_1_0_ANN 2.4369023446956861e+00
s_1_0_ANN 0
z_1_0_ANN 1
x_1_1_ANN 1.9033304917390677e+00
s_1_1_ANN 0
z_1_1_ANN 1
x_1_2_ANN 0
s_1_2_ANN 5.9774974056340735e-01
z_1_2_ANN 0
x_1_3_ANN 1.5866969953472592e+00
s_1_3_ANN 0
z_1_3_ANN 1
x_1_4_ANN 0
s_1_4_ANN 9.0257373948946162e-01
z_1_4_ANN 0
x_1_5_ANN 6.6386163013097088e-01
s_1_5_ANN 0
z_1_5_ANN 1
x_1_6_ANN 0
s_1_6_ANN 1.0357966535802319e+00
z_1_6_ANN 0
x_1_7_ANN 3.1079619418745218e-02
s_1_7_ANN 0
z_1_7_ANN 1
x_1_8_ANN 3.7822535378664551e-01
s_1_8_ANN 0
z_1_8_ANN 1
x_1_9_ANN 1.4474967956144094e+00
s_1_9_ANN 0
z_1_9_ANN 1
x_1_10_ANN 0
s_1_10_ANN 1.0916343358215036e-02
z_1_10_ANN 0
x_1_11_ANN 0
s_1_11_ANN 3.2405215842590557e-01
z_1_11_ANN 0
x_1_12_ANN 0
s_1_12_ANN 4.6942200912754967e-01
z_1_12_ANN 0
x_1_13_ANN 1.3846199661402769e+00
s_1_13_ANN 0
z_1_13_ANN 1
x_1_14_ANN 0
s_1_14_ANN 7.9896609475288871e-01
z_1_14_ANN 0
x_1_15_ANN 0
s_1_15_ANN 1.5754631257044358e+00
z_1_15_ANN 0
